c nIsolatedPIs 0
c maxPI 12
p cnf 97 256
c gate 13 3 8 0
3 -13 0
8 -13 0
-3 -8 13 0
c gate 14 3 6 0
3 -14 0
6 -14 0
-3 -6 14 0
c gate 15 4 5 0
4 -15 0
5 -15 0
-4 -5 15 0
c gate 16 14 15 0
14 -16 0
15 -16 0
-14 -15 16 0
c gate 17 2 7 0
2 -17 0
7 -17 0
-2 -7 17 0
c gate 18 -14 -15 0
-14 -18 0
-15 -18 0
14 15 18 0
c gate 19 -16 -18 0
-16 -19 0
-18 -19 0
16 18 19 0
c gate 20 17 19 0
17 -20 0
19 -20 0
-17 -19 20 0
c gate 21 -16 -20 0
-16 -21 0
-20 -21 0
16 20 21 0
c gate 22 4 6 0
4 -22 0
6 -22 0
-4 -6 22 0
c gate 23 3 7 0
3 -23 0
7 -23 0
-3 -7 23 0
c gate 24 22 -23 0
22 -24 0
-23 -24 0
-22 23 24 0
c gate 25 -22 23 0
-22 -25 0
23 -25 0
22 -23 25 0
c gate 26 -24 -25 0
-24 -26 0
-25 -26 0
24 25 26 0
c gate 27 -21 -26 0
-21 -27 0
-26 -27 0
21 26 27 0
c gate 28 2 8 0
2 -28 0
8 -28 0
-2 -8 28 0
c gate 29 21 26 0
21 -29 0
26 -29 0
-21 -26 29 0
c gate 30 -27 -29 0
-27 -30 0
-29 -30 0
27 29 30 0
c gate 31 28 30 0
28 -31 0
30 -31 0
-28 -30 31 0
c gate 32 -27 -31 0
-27 -32 0
-31 -32 0
27 31 32 0
c gate 33 4 7 0
4 -33 0
7 -33 0
-4 -7 33 0
c gate 34 -14 33 0
-14 -34 0
33 -34 0
14 -33 34 0
c gate 35 -32 34 0
-32 -35 0
34 -35 0
32 -34 35 0
c gate 36 32 -34 0
32 -36 0
-34 -36 0
-32 34 36 0
c gate 37 -35 -36 0
-35 -37 0
-36 -37 0
35 36 37 0
c gate 38 13 -37 0
13 -38 0
-37 -38 0
-13 37 38 0
c gate 39 -13 37 0
-13 -39 0
37 -39 0
13 -37 39 0
c gate 40 -38 -39 0
-38 -40 0
-39 -40 0
38 39 40 0
c gate 41 1 8 0
1 -41 0
8 -41 0
-1 -8 41 0
c gate 42 2 6 0
2 -42 0
6 -42 0
-2 -6 42 0
c gate 43 3 5 0
3 -43 0
5 -43 0
-3 -5 43 0
c gate 44 42 43 0
42 -44 0
43 -44 0
-42 -43 44 0
c gate 45 1 7 0
1 -45 0
7 -45 0
-1 -7 45 0
c gate 46 -42 -43 0
-42 -46 0
-43 -46 0
42 43 46 0
c gate 47 -44 -46 0
-44 -47 0
-46 -47 0
44 46 47 0
c gate 48 45 47 0
45 -48 0
47 -48 0
-45 -47 48 0
c gate 49 -44 -48 0
-44 -49 0
-48 -49 0
44 48 49 0
c gate 50 -17 -19 0
-17 -50 0
-19 -50 0
17 19 50 0
c gate 51 -20 -50 0
-20 -51 0
-50 -51 0
20 50 51 0
c gate 52 -49 51 0
-49 -52 0
51 -52 0
49 -51 52 0
c gate 53 49 -51 0
49 -53 0
-51 -53 0
-49 51 53 0
c gate 54 -52 -53 0
-52 -54 0
-53 -54 0
52 53 54 0
c gate 55 41 54 0
41 -55 0
54 -55 0
-41 -54 55 0
c gate 56 -45 -47 0
-45 -56 0
-47 -56 0
45 47 56 0
c gate 57 -48 -56 0
-48 -57 0
-56 -57 0
48 56 57 0
c gate 58 2 5 0
2 -58 0
5 -58 0
-2 -5 58 0
c gate 59 1 6 0
1 -59 0
6 -59 0
-1 -6 59 0
c gate 60 58 59 0
58 -60 0
59 -60 0
-58 -59 60 0
c gate 61 57 60 0
57 -61 0
60 -61 0
-57 -60 61 0
c gate 62 -41 -54 0
-41 -62 0
-54 -62 0
41 54 62 0
c gate 63 61 -62 0
61 -63 0
-62 -63 0
-61 62 63 0
c gate 64 -28 -30 0
-28 -64 0
-30 -64 0
28 30 64 0
c gate 65 -31 -64 0
-31 -65 0
-64 -65 0
31 64 65 0
c gate 66 -52 -65 0
-52 -66 0
-65 -66 0
52 65 66 0
c gate 67 -63 -66 0
-63 -67 0
-66 -67 0
63 66 67 0
c gate 68 -55 -67 0
-55 -68 0
-67 -68 0
55 67 68 0
c gate 69 -55 -62 0
-55 -69 0
-62 -69 0
55 62 69 0
c gate 70 -57 -60 0
-57 -70 0
-60 -70 0
57 60 70 0
c gate 71 -11 70 0
-11 -71 0
70 -71 0
11 -70 71 0
c gate 72 11 -70 0
11 -72 0
-70 -72 0
-11 70 72 0
c gate 73 -58 -59 0
-58 -73 0
-59 -73 0
58 59 73 0
c gate 74 -60 -73 0
-60 -74 0
-73 -74 0
60 73 74 0
c gate 75 -10 -74 0
-10 -75 0
-74 -75 0
10 74 75 0
c gate 76 10 74 0
10 -76 0
74 -76 0
-10 -74 76 0
c gate 77 1 5 0
1 -77 0
5 -77 0
-1 -5 77 0
c gate 78 9 77 0
9 -78 0
77 -78 0
-9 -77 78 0
c gate 79 -76 -78 0
-76 -79 0
-78 -79 0
76 78 79 0
c gate 80 -75 -79 0
-75 -80 0
-79 -80 0
75 79 80 0
c gate 81 -72 -80 0
-72 -81 0
-80 -81 0
72 80 81 0
c gate 82 -71 -81 0
-71 -82 0
-81 -82 0
71 81 82 0
c gate 83 12 82 0
12 -83 0
82 -83 0
-12 -82 83 0
c gate 84 -69 -83 0
-69 -84 0
-83 -84 0
69 83 84 0
c gate 85 -12 -82 0
-12 -85 0
-82 -85 0
12 82 85 0
c gate 86 -52 -55 0
-52 -86 0
-55 -86 0
52 55 86 0
c gate 87 65 -86 0
65 -87 0
-86 -87 0
-65 86 87 0
c gate 88 8 -23 0
8 -88 0
-23 -88 0
-8 23 88 0
c gate 89 7 -8 0
7 -89 0
-8 -89 0
-7 8 89 0
c gate 90 14 89 0
14 -90 0
89 -90 0
-14 -89 90 0
c gate 91 -88 -90 0
-88 -91 0
-90 -91 0
88 90 91 0
c gate 92 4 -91 0
4 -92 0
-91 -92 0
-4 91 92 0
c gate 93 -87 92 0
-87 -93 0
92 -93 0
87 -92 93 0
c gate 94 -85 93 0
-85 -94 0
93 -94 0
85 -93 94 0
c gate 95 -84 94 0
-84 -95 0
94 -95 0
84 -94 95 0
c gate 96 -68 95 0
-68 -96 0
95 -96 0
68 -95 96 0
c gate 97 -40 96 0
-40 -97 0
96 -97 0
40 -96 97 0
c PO
97 0
